50

98 27 221
96 34 441
96 17 213
87 41 456
87 2 437
87 22 331
86 36 357
85 37 357
83 31 549
83 38 563
82 13 290
81 25 292
77 15 209
74 29 507
67 34 285
65 22 319
64 21 402
64 21 489
63 16 558
60 13 345
57 24 420
57 10 558
56 23 536
55 19 512
50 6 580
49 18 285
46 19 455
43 7 511
43 10 443
42 14 345
37 8 356
33 7 217
31 9 566
31 15 321
27 8 552
27 8 403
26 2 218
25 11 472
23 8 470
23 9 292
19 1 513
18 1 266
15 5 536
13 7 310
10 1 296
9 3 364
6 2 538
3 1 235
2 1 237
1 1 591
